c Generated map
c Size: 10 * 10, weights in range: 1 to 10, walls: True, with ratio 0.1
c dim 1 of 6
c
p sp 100 146
c graph contains 100 nodes and 146 arcs
c
a 1 11 3
a 11 1 3
a 1 2 6
a 2 1 6
a 2 12 6
a 12 2 6
a 2 3 9
a 3 2 9
a 3 13 5
a 13 3 5
a 3 4 3
a 4 3 3
a 4 14 5
a 14 4 5
a 4 5 9
a 5 4 9
a 5 15 3
a 15 5 3
a 5 6 7
a 6 5 7
a 6 16 4
a 16 6 4
a 6 7 2
a 7 6 2
a 7 17 1
a 17 7 1
a 7 8 8
a 8 7 8
a 8 18 1
a 18 8 1
a 8 9 9
a 9 8 9
a 9 19 2
a 19 9 2
a 9 10 10
a 10 9 10
a 10 20 1
a 20 10 1
a 11 21 5
a 21 11 5
a 11 12 8
a 12 11 8
a 12 22 9
a 22 12 9
a 12 13 5
a 13 12 5
a 13 23 9
a 23 13 9
a 13 14 1
a 14 13 1
a 14 24 3
a 24 14 3
a 14 15 9
a 15 14 9
a 15 25 9
a 25 15 9
a 15 16 2
a 16 15 2
a 16 17 9
a 17 16 9
a 17 18 7
a 18 17 7
a 18 28 3
a 28 18 3
a 18 19 7
a 19 18 7
a 19 29 4
a 29 19 4
a 19 20 8
a 20 19 8
a 20 30 3
a 30 20 3
a 21 31 1
a 31 21 1
a 21 22 4
a 22 21 4
a 22 32 4
a 32 22 4
a 22 23 1
a 23 22 1
a 23 33 4
a 33 23 4
a 23 24 1
a 24 23 1
a 24 34 2
a 34 24 2
a 24 25 10
a 25 24 10
a 25 35 2
a 35 25 2
a 28 38 3
a 38 28 3
a 28 29 3
a 29 28 3
a 29 39 9
a 39 29 9
a 29 30 9
a 30 29 9
a 31 41 6
a 41 31 6
a 31 32 6
a 32 31 6
a 32 42 10
a 42 32 10
a 32 33 7
a 33 32 7
a 33 43 5
a 43 33 5
a 33 34 9
a 34 33 9
a 34 44 10
a 44 34 10
a 34 35 7
a 35 34 7
a 35 45 3
a 45 35 3
a 35 36 1
a 36 35 1
a 36 46 10
a 46 36 10
a 36 37 7
a 37 36 7
a 37 47 1
a 47 37 1
a 37 38 6
a 38 37 6
a 38 48 4
a 48 38 4
a 38 39 10
a 39 38 10
a 39 49 6
a 49 39 6
a 41 51 3
a 51 41 3
a 41 42 4
a 42 41 4
a 42 52 10
a 52 42 10
a 42 43 8
a 43 42 8
a 43 53 4
a 53 43 4
a 43 44 7
a 44 43 7
a 44 54 2
a 54 44 2
a 44 45 8
a 45 44 8
a 45 55 9
a 55 45 9
a 45 46 1
a 46 45 1
a 46 56 3
a 56 46 3
a 46 47 5
a 47 46 5
a 47 48 4
a 48 47 4
a 48 58 4
a 58 48 4
a 48 49 7
a 49 48 7
a 49 59 10
a 59 49 10
a 49 50 5
a 50 49 5
a 50 60 9
a 60 50 9
a 51 61 5
a 61 51 5
a 51 52 5
a 52 51 5
a 52 62 3
a 62 52 3
a 52 53 9
a 53 52 9
a 53 54 7
a 54 53 7
a 54 55 5
a 55 54 5
a 55 56 2
a 56 55 2
a 56 66 8
a 66 56 8
a 58 68 10
a 68 58 10
a 58 59 5
a 59 58 5
a 59 69 8
a 69 59 8
a 59 60 6
a 60 59 6
a 60 70 7
a 70 60 7
a 61 71 3
a 71 61 3
a 61 62 2
a 62 61 2
a 62 72 6
a 72 62 6
a 66 76 10
a 76 66 10
a 66 67 10
a 67 66 10
a 67 77 1
a 77 67 1
a 67 68 1
a 68 67 1
a 68 78 10
a 78 68 10
a 68 69 7
a 69 68 7
a 69 70 8
a 70 69 8
a 70 80 7
a 80 70 7
a 71 72 1
a 72 71 1
a 72 82 5
a 82 72 5
a 72 73 4
a 73 72 4
a 73 83 2
a 83 73 2
a 73 74 4
a 74 73 4
a 74 84 2
a 84 74 2
a 74 75 3
a 75 74 3
a 75 85 7
a 85 75 7
a 75 76 6
a 76 75 6
a 76 86 5
a 86 76 5
a 76 77 5
a 77 76 5
a 77 87 2
a 87 77 2
a 77 78 3
a 78 77 3
a 78 88 10
a 88 78 10
a 80 90 9
a 90 80 9
a 82 83 5
a 83 82 5
a 83 93 4
a 93 83 4
a 83 84 6
a 84 83 6
a 84 94 4
a 94 84 4
a 84 85 3
a 85 84 3
a 85 95 9
a 95 85 9
a 85 86 4
a 86 85 4
a 86 96 6
a 96 86 6
a 86 87 6
a 87 86 6
a 87 97 5
a 97 87 5
a 87 88 3
a 88 87 3
a 88 98 7
a 98 88 7
a 88 89 4
a 89 88 4
a 89 99 8
a 99 89 8
a 89 90 3
a 90 89 3
a 90 100 8
a 100 90 8
a 93 94 3
a 94 93 3
a 94 95 4
a 95 94 4
a 95 96 7
a 96 95 7
a 96 97 7
a 97 96 7
a 97 98 7
a 98 97 7
a 98 99 1
a 99 98 1
a 99 100 10
a 100 99 10
